
Gurobi 10.0.0 (win64) logging started Thu Jun 13 08:29:40 2024

Set parameter LogFile to value "C:\Users\ealvarezq\Documents\GitHub\Comillas\Models\JointResearch\05. Models\06.Benchmarking\D.Representative_days_based_on_RES_and_Demand\RTS24_mod2_ByStages_nc40/openStarNet_RTS24_mod2_ByStages_nc40.log"
Set parameter Method to value 2
Set parameter MIPFocus to value 1
Set parameter Presolve to value 2
Set parameter RINS to value 100
Set parameter MIPGap to value 0.01
Set parameter Threads to value 9
Set parameter TimeLimit to value 259200
Set parameter IterationLimit to value 760000000
Gurobi Optimizer version 10.0.0 build v10.0.0rc2 (win64)

CPU model: Intel(R) Core(TM) i7-8700 CPU @ 3.20GHz, instruction set [SSE2|AVX|AVX2]
Thread count: 6 physical cores, 12 logical processors, using up to 9 threads

Optimize a model with 14203 rows, 9590 columns and 38663 nonzeros
Model fingerprint: 0xd60edbe2
Variable types: 9569 continuous, 21 integer (21 binary)
Coefficient statistics:
  Matrix range     [7e-03, 7e+02]
  Objective range  [1e+00, 1e+00]
  Bounds range     [6e-05, 2e+00]
  RHS range        [6e-05, 2e+00]
Presolve removed 8460 rows and 4845 columns
Presolve time: 0.06s
Presolved: 5743 rows, 4745 columns, 20746 nonzeros
Variable types: 4724 continuous, 21 integer (21 binary)
Found heuristic solution: objective 123.5423994
Root relaxation presolve removed 7 rows and 7 columns
Root relaxation presolved: 5736 rows, 4738 columns, 20732 nonzeros

Root barrier log...

Ordering time: 0.00s

Barrier statistics:
 Dense cols : 21
 AA' NZ     : 3.851e+04
 Factor NZ  : 1.103e+05 (roughly 5 MB of memory)
 Factor Ops : 2.260e+06 (less than 1 second per iteration)
 Threads    : 9

                  Objective                Residual
Iter       Primal          Dual         Primal    Dual     Compl     Time
   0   2.71745733e+06 -4.15921736e+07  2.24e+01 1.91e+02  2.61e+04     0s
   1   9.03189018e+05 -2.27090950e+07  7.32e+00 2.95e+01  7.81e+03     0s
   2   7.91062886e+04 -1.51015612e+07  5.64e-01 9.99e+00  1.52e+03     0s
   3   2.68315250e+04 -2.13031888e+06  9.21e-02 1.43e-10  1.84e+02     0s
   4   1.40297243e+04 -1.82091852e+05  3.29e-03 2.90e-11  1.47e+01     0s
   5   4.85258691e+03 -2.78561974e+04  4.89e-04 3.64e-12  2.44e+00     0s
   6   5.33690311e+02 -4.72254698e+03  1.27e-05 1.55e-12  3.92e-01     0s
   7   3.53130498e+02 -1.69313855e+03  2.94e-06 1.77e-12  1.53e-01     0s
   8   2.14494166e+02 -4.36205671e+02  9.09e-07 1.14e-12  4.85e-02     0s
   9   1.08037991e+02  1.34911187e+01  1.02e-07 1.43e-12  7.05e-03     0s
  10   9.18611733e+01  4.75398190e+01  5.66e-08 1.86e-12  3.31e-03     0s
  11   8.39785783e+01  5.86245617e+01  3.54e-08 8.92e-13  1.89e-03     0s
  12   7.97585031e+01  6.24712132e+01  2.37e-08 9.21e-13  1.29e-03     0s
  13   7.58483968e+01  6.61991925e+01  1.33e-08 1.36e-12  7.20e-04     0s
  14   7.39866792e+01  6.85605814e+01  7.53e-09 1.07e-12  4.05e-04     0s
  15   7.28216926e+01  7.02262653e+01  3.94e-09 8.42e-13  1.94e-04     0s
  16   7.20728430e+01  7.10724690e+01  1.55e-09 1.24e-12  7.46e-05     0s
  17   7.17500721e+01  7.14508317e+01  5.62e-10 1.10e-12  2.23e-05     0s
  18   7.17049986e+01  7.15164556e+01  4.33e-10 2.13e-12  1.41e-05     0s
  19   7.16569154e+01  7.15394285e+01  2.85e-10 1.44e-12  8.76e-06     0s
  20   7.16037791e+01  7.15626833e+01  2.07e-10 1.83e-12  3.07e-06     0s
  21   7.15715102e+01  7.15651524e+01  8.23e-11 1.19e-12  4.74e-07     0s
  22   7.15680097e+01  7.15673970e+01  2.57e-12 1.04e-12  4.57e-08     0s
  23   7.15678748e+01  7.15678636e+01  7.86e-09 9.54e-13  8.32e-10     0s
  24   7.15678707e+01  7.15678707e+01  1.27e-10 1.95e-12  8.32e-13     0s

Barrier solved model in 24 iterations and 0.22 seconds (0.20 work units)
Optimal objective 7.15678707e+01


Root relaxation: objective 7.156787e+01, 939 iterations, 0.14 seconds (0.09 work units)

    Nodes    |    Current Node    |     Objective Bounds      |     Work
 Expl Unexpl |  Obj  Depth IntInf | Incumbent    BestBd   Gap | It/Node Time

     0     0   71.56787    0   15  123.54240   71.56787  42.1%     -    0s
     0     0   72.55439    0   15  123.54240   72.55439  41.3%     -    0s
H    0     0                     112.7955627   72.57188  35.7%     -    0s
     0     0   72.57188    0   15  112.79556   72.57188  35.7%     -    0s
H    0     0                     108.6756602   73.14685  32.7%     -    0s
     0     0   73.14685    0   13  108.67566   73.14685  32.7%     -    0s
     0     0   73.46044    0   15  108.67566   73.46044  32.4%     -    0s
     0     0   73.46044    0   15  108.67566   73.46044  32.4%     -    0s
     0     0   73.46044    0   15  108.67566   73.46044  32.4%     -    0s
     0     0   73.46044    0   13  108.67566   73.46044  32.4%     -    1s
     0     0   73.46044    0   13  108.67566   73.46044  32.4%     -    1s
H    0     0                     107.1366398   73.46044  31.4%     -    1s
     0     0   73.46044    0   13  107.13664   73.46044  31.4%     -    1s
H    0     0                      99.4006471   73.46044  26.1%     -    1s
     0     0   73.99372    0   14   99.40065   73.99372  25.6%     -    1s
     0     0   73.99372    0   13   99.40065   73.99372  25.6%     -    1s
     0     0   73.99372    0   13   99.40065   73.99372  25.6%     -    1s
     0     0   73.99372    0   13   99.40065   73.99372  25.6%     -    1s
     0     0   74.25412    0   13   99.40065   74.25412  25.3%     -    1s
H    0     0                      92.0542464   74.25412  19.3%     -    4s
     0     2   74.25412    0   13   92.05425   74.25412  19.3%     -    4s
     3     8   75.01767    2   13   92.05425   74.25412  19.3%   427    5s
H  102    88                      91.8867279   76.11792  17.2%   193    7s
   698   221   87.57935   11   10   91.88673   82.55409  10.2%   142   15s
   897   283     cutoff   12        91.88673   83.06651  9.60%   136   21s
  1588   369   91.74082   13    8   91.88673   86.07172  6.33%   119   29s
  2042   429     cutoff    9        91.88673   86.96612  5.36%   112   30s
  2796   456   91.21484   15    6   91.88673   88.06157  4.16%   103   35s
  4160   236   90.92421   13    7   91.88673   89.74523  2.33%  90.8   42s

Cutting planes:
  Gomory: 4
  Implied bound: 38
  MIR: 245
  Relax-and-lift: 22

Explored 4855 nodes (414458 simplex iterations) in 42.71 seconds (57.80 work units)
Thread count was 9 (of 12 available processors)

Solution count 7: 91.8867 92.0542 99.4006 ... 123.542

Optimal solution found (tolerance 1.00e-02)
Best objective 9.188672786396e+01, best bound 9.188672786396e+01, gap 0.0000%

Gurobi 10.0.0 (win64) logging started Thu Jun 13 08:30:24 2024

Set parameter LogFile to value "C:\Users\ealvarezq\Documents\GitHub\Comillas\Models\JointResearch\05. Models\06.Benchmarking\D.Representative_days_based_on_RES_and_Demand\RTS24_mod2_ByStages_nc40/openStarNet_RTS24_mod2_ByStages_nc40.log"
Set parameter Method to value 2
Set parameter MIPFocus to value 1
Set parameter Presolve to value 2
Set parameter RINS to value 100
Set parameter MIPGap to value 0.01
Set parameter Threads to value 9
Set parameter TimeLimit to value 259200
Set parameter IterationLimit to value 760000000
Gurobi Optimizer version 10.0.0 build v10.0.0rc2 (win64)

CPU model: Intel(R) Core(TM) i7-8700 CPU @ 3.20GHz, instruction set [SSE2|AVX|AVX2]
Thread count: 6 physical cores, 12 logical processors, using up to 9 threads

Optimize a model with 14203 rows, 9569 columns and 35282 nonzeros
Model fingerprint: 0xfa1fab2a
Coefficient statistics:
  Matrix range     [7e-03, 7e+02]
  Objective range  [1e+00, 1e+00]
  Bounds range     [6e-05, 2e+00]
  RHS range        [6e-05, 2e+01]
Presolve removed 11941 rows and 5515 columns
Presolve time: 0.02s
Presolved: 2262 rows, 4124 columns, 10359 nonzeros

Ordering time: 0.00s

Barrier statistics:
 AA' NZ     : 6.101e+03
 Factor NZ  : 1.991e+04 (roughly 2 MB of memory)
 Factor Ops : 2.661e+05 (less than 1 second per iteration)
 Threads    : 1

                  Objective                Residual
Iter       Primal          Dual         Primal    Dual     Compl     Time
   0   2.48037246e+06 -1.63852333e+07  1.69e+01 1.16e+03  2.31e+04     0s
   1   1.63063618e+05 -9.61474491e+06  1.08e+00 1.27e-11  2.45e+03     0s
   2   6.23543744e+04 -2.95840853e+06  3.63e-01 1.82e-11  6.06e+02     0s
   3   2.63749666e+04 -8.59614868e+05  5.68e-02 1.27e-11  1.36e+02     0s
   4   1.57015182e+04 -1.84877920e+05  3.24e-03 7.73e-12  2.79e+01     0s
   5   5.42681820e+03 -3.76314491e+04  2.54e-04 2.91e-11  5.94e+00     0s
   6   1.02759798e+03 -3.74866684e+03  1.89e-05 3.87e-12  6.59e-01     0s
   7   3.49426285e+02 -1.51610925e+03  1.62e-07 3.58e-12  2.57e-01     0s
   8   2.36170618e+02 -5.32358766e+02  2.64e-08 3.82e-12  1.06e-01     0s
   9   1.49161874e+02 -9.05204236e+01  6.84e-09 3.42e-12  3.31e-02     0s
  10   1.11210858e+02  3.55852235e+01  2.09e-09 2.15e-12  1.04e-02     0s
  11   9.96851863e+01  7.43245706e+01  7.84e-10 3.17e-12  3.50e-03     0s
  12   9.39435268e+01  8.59407179e+01  1.86e-10 3.73e-12  1.10e-03     0s
  13   9.22169124e+01  9.08436921e+01  3.38e-11 2.10e-12  1.89e-04     0s
  14   9.19010865e+01  9.18126533e+01  1.82e-11 3.16e-12  1.22e-05     0s
  15   9.18869098e+01  9.18855408e+01  5.40e-12 5.85e-12  1.89e-07     0s
  16   9.18867279e+01  9.18867278e+01  2.13e-11 3.01e-12  2.18e-11     0s
  17   9.18867279e+01  9.18867279e+01  2.83e-11 3.65e-12  4.86e-17     0s

Barrier solved model in 17 iterations and 0.05 seconds (0.04 work units)
Optimal objective 9.18867279e+01

Crossover log...

     518 DPushes remaining with DInf 0.0000000e+00                 0s
       0 DPushes remaining with DInf 0.0000000e+00                 0s

     149 PPushes remaining with PInf 0.0000000e+00                 0s
       0 PPushes remaining with PInf 0.0000000e+00                 0s

  Push phase complete: Pinf 0.0000000e+00, Dinf 4.8134326e-13      0s

Iteration    Objective       Primal Inf.    Dual Inf.      Time
     161    9.1886728e+01   0.000000e+00   0.000000e+00      0s

Use crossover to convert LP symmetric solution to basic solution...
Crossover log...

       0 DPushes remaining with DInf 0.0000000e+00                 0s

     115 PPushes remaining with PInf 0.0000000e+00                 0s
       0 PPushes remaining with PInf 0.0000000e+00                 0s

  Push phase complete: Pinf 0.0000000e+00, Dinf 4.5029865e-13      0s

Iteration    Objective       Primal Inf.    Dual Inf.      Time
     288    9.1886728e+01   0.000000e+00   0.000000e+00      0s

Solved in 288 iterations and 0.07 seconds (0.05 work units)
Optimal objective  9.188672786e+01
